sat
(:binary-propagations  434
 :decisions            642
 :del-clause           95
 :final-checks         9
 :max-generation       1
 :max-memory           23.71
 :memory               21.12
 :mk-bool-var          611
 :mk-clause            170
 :mk-clause-binary     413
 :num-allocs           10441237
 :num-checks           1
 :propagations         554
 :quant-instantiations 98
 :restarts             8
 :rlimit-count         214887
 :time                 0.06)
